\* MasterProblem *\
Minimize
OBJ: x1 + x10 + x11 + x12 + x13 + x14 + x15 + x16 + x17 + x18 + x19 + x2 + x20
 + x21 + x22 + x23 + x24 + x25 + x26 + x27 + x28 + x29 + x3 + x30 + x31 + x32
 + x33 + x34 + x35 + x36 + x37 + x38 + x4 + x40 + x41 + x42 + x43 + x44 + x45
 + x46 + x47 + x48 + x49 + x5 + x50 + x51 + x52 + x53 + x54 + x55 + x56 + x57
 + x58 + x59 + x6 + x60 + x61 + x62 + x63 + x64 + x65 + x66 + x67 + x68 + x69
 + x7 + x70 + x71 + x72 + x73 + x74 + x75 + x76 + x77 + x78 + x79 + x8 + x80
 + x81 + x82 + x83 + x84 + x85 + x86 + x87 + x88 + x89 + x9 + x90 + x91 + x92
 + x93 + x94 + x95 + x96 + x97 + x98 + x99
Subject To
C0: x1 >= 2
C1: x2 >= 1
C10: x11 + x82 + x84 + x92 >= 1
C11: x12 + x79 + x80 + x81 + x83 >= 2
C12: x13 + x75 + x86 + x87 >= 1
C13: x14 + x77 + x78 + x88 + x91 >= 1
C14: x15 + x74 >= 1
C15: x16 + x72 + x73 >= 1
C16: x17 + x68 + x71 + x99 >= 1
C17: x18 + x61 + x62 + x64 + x66 + x69 >= 1
C18: x19 + x63 + x65 + x67 + x70 + x98 >= 2
C19: x20 + x59 + x76 >= 1
C2: x3 >= 2
C20: x21 + 2 x58 >= 2
C21: x22 + 2 x57 + x76 >= 2
C22: x23 + 2 x56 + x62 + x65 >= 1
C23: x24 + 2 x55 + x64 + x67 >= 1
C24: x25 + 2 x54 + x66 + x70 + x71 >= 1
C25: x26 + 2 x53 + x69 + x98 + x99 >= 2
C26: x27 + 2 x52 + x73 >= 1
C27: x28 + x50 + 2 x51 + x74 >= 2
C28: x29 + x48 + 2 x49 >= 1
C29: x30 + x48 + x50 + x72 >= 1
C3: x4 >= 2
C30: x31 + 2 x47 + x77 + x83 >= 1
C31: x32 + 3 x46 + x81 + x86 + x88 + x92 >= 1
C32: x33 + 3 x45 + x80 + x93 >= 1
C33: x34 + x43 + 3 x44 + x79 + x82 >= 1
C34: x35 + x42 + 2 x43 + x47 + x59 + x75 + x78 + x85 >= 2
C35: x36 + 2 x42 + 3 x60 + x87 >= 1
C36: x37 + x40 + 4 x41 + x60 + 2 x61 + 2 x63 + 2 x68 + x91 + x94 + x96 >= 2
C37: x38 + 3 x40 + x42 + x59 + x84 + x89 + x90 + x95 + x97 >= 1
C4: x5 >= 1
C5: x6 >= 1
C6: x7 + x97 >= 1
C7: x8 + x95 + x96 >= 1
C8: x9 + x90 + x94 >= 1
C9: x10 + x85 + x89 + x93 >= 2
Bounds
0 <= x1
0 <= x10
0 <= x11
0 <= x12
0 <= x13
0 <= x14
0 <= x15
0 <= x16
0 <= x17
0 <= x18
0 <= x19
0 <= x2
0 <= x20
0 <= x21
0 <= x22
0 <= x23
0 <= x24
0 <= x25
0 <= x26
0 <= x27
0 <= x28
0 <= x29
0 <= x3
0 <= x30
0 <= x31
0 <= x32
0 <= x33
0 <= x34
0 <= x35
0 <= x36
0 <= x37
0 <= x38
0 <= x4
0 <= x40
0 <= x41
0 <= x42
0 <= x43
0 <= x44
0 <= x45
0 <= x46
0 <= x47
0 <= x48
0 <= x49
0 <= x5
0 <= x50
0 <= x51
0 <= x52
0 <= x53
0 <= x54
0 <= x55
0 <= x56
0 <= x57
0 <= x58
0 <= x59
0 <= x6
0 <= x60
0 <= x61
0 <= x62
0 <= x63
0 <= x64
0 <= x65
0 <= x66
0 <= x67
0 <= x68
0 <= x69
0 <= x7
0 <= x70
0 <= x71
0 <= x72
0 <= x73
0 <= x74
0 <= x75
0 <= x76
0 <= x77
0 <= x78
0 <= x79
0 <= x8
0 <= x80
0 <= x81
0 <= x82
0 <= x83
0 <= x84
0 <= x85
0 <= x86
0 <= x87
0 <= x88
0 <= x89
0 <= x9
0 <= x90
0 <= x91
0 <= x92
0 <= x93
0 <= x94
0 <= x95
0 <= x96
0 <= x97
0 <= x98
0 <= x99
Generals
x1
x10
x11
x12
x13
x14
x15
x16
x17
x18
x19
x2
x20
x21
x22
x23
x24
x25
x26
x27
x28
x29
x3
x30
x31
x32
x33
x34
x35
x36
x37
x38
x4
x40
x41
x42
x43
x44
x45
x46
x47
x48
x49
x5
x50
x51
x52
x53
x54
x55
x56
x57
x58
x59
x6
x60
x61
x62
x63
x64
x65
x66
x67
x68
x69
x7
x70
x71
x72
x73
x74
x75
x76
x77
x78
x79
x8
x80
x81
x82
x83
x84
x85
x86
x87
x88
x89
x9
x90
x91
x92
x93
x94
x95
x96
x97
x98
x99
End
